
n_res = 4;
rcap = [65, 66, 585, 602];
rtype = [1, 1, 2, 2];
n_tasks = 50;
modes =  [{1, 2, 3, 4, 5, 6}, {7, 8, 9, 10, 11, 12}, {13, 14, 15, 16, 17, 18}, {19, 20, 21, 22, 23, 24}, {25, 26, 27, 28, 29, 30}, {31, 32, 33, 34, 35, 36}, {37, 38, 39, 40, 41, 42}, {43, 44, 45, 46, 47, 48}, {49, 50, 51, 52, 53, 54}, {55, 56, 57, 58, 59, 60}, {61, 62, 63, 64, 65, 66}, {67, 68, 69, 70, 71, 72}, {73, 74, 75, 76, 77, 78}, {79, 80, 81, 82, 83, 84}, {85, 86, 87, 88, 89, 90}, {91, 92, 93, 94, 95, 96}, {97, 98, 99, 100, 101, 102}, {103, 104, 105, 106, 107, 108}, {109, 110, 111, 112, 113, 114}, {115, 116, 117, 118, 119, 120}, {121, 122, 123, 124, 125, 126}, {127, 128, 129, 130, 131, 132}, {133, 134, 135, 136, 137, 138}, {139, 140, 141, 142, 143, 144}, {145, 146, 147, 148, 149, 150}, {151, 152, 153, 154, 155, 156}, {157, 158, 159, 160, 161, 162}, {163, 164, 165, 166, 167, 168}, {169, 170, 171, 172, 173, 174}, {175, 176, 177, 178, 179, 180}, {181, 182, 183, 184, 185, 186}, {187, 188, 189, 190, 191, 192}, {193, 194, 195, 196, 197, 198}, {199, 200, 201, 202, 203, 204}, {205, 206, 207, 208, 209, 210}, {211, 212, 213, 214, 215, 216}, {217, 218, 219, 220, 221, 222}, {223, 224, 225, 226, 227, 228}, {229, 230, 231, 232, 233, 234}, {235, 236, 237, 238, 239, 240}, {241, 242, 243, 244, 245, 246}, {247, 248, 249, 250, 251, 252}, {253, 254, 255, 256, 257, 258}, {259, 260, 261, 262, 263, 264}, {265, 266, 267, 268, 269, 270}, {271, 272, 273, 274, 275, 276}, {277, 278, 279, 280, 281, 282}, {283, 284, 285, 286, 287, 288}, {289, 290, 291, 292, 293, 294}, {295, 296, 297, 298, 299, 300}];
succ =  [{48, 47, 45, 44, 29, 28, 27, 26, 25, 24, 21, 13, 12}, {49, 47, 46, 45, 44, 41, 29, 27, 25, 24, 21, 17, 12}, {48, 47, 42, 27, 18, 13, 7}, {49, 47, 46, 45, 25, 24, 19, 17, 12}, {47, 46, 44, 42, 41, 32, 28, 26, 24, 21, 12}, {49, 46, 45, 44, 41, 29, 24, 12}, {50, 38, 31, 23, 15, 14}, {48, 47, 45, 44, 43, 40, 38, 32, 31, 28, 23}, {45, 43, 42, 41, 40, 38, 32, 31, 28, 24}, {48, 46, 44, 42, 40, 37, 32, 28}, {49, 48, 45, 41, 35, 31, 25}, {43, 40, 38, 37, 36, 31, 23}, {46, 41, 40, 39, 32, 31}, {45, 44, 39, 37, 28}, {43, 41, 40, 37, 28}, {40, 39, 38, 35, 28}, {40, 32, 31, 28}, {46, 41, 31, 23}, {44, 42, 41, 38, 37}, {46, 42, 37, 31}, {38, 36, 35, 34}, {38, 37, 35, 34}, {39, 35, 34}, {37, 36, 34}, {42, 38, 37}, {43, 39, 35}, {35, 31}, {36, 34}, {42, 34}, {36, 34}, {34}, {35}, {39}, {}, {}, {}, {}, {}, {}, {}, {}, {}, {}, {}, {}, {}, {}, {}, {}, {}];
n_opt = 300;
dur = [4, 5, 6, 8, 9, 13, 1, 3, 10, 12, 17, 18, 3, 4, 7, 14, 19, 20, 5, 6, 7, 10, 16, 20, 3, 7, 8, 11, 12, 15, 1, 2, 11, 12, 15, 17, 1, 3, 6, 8, 18, 20, 7, 8, 14, 15, 17, 18, 2, 4, 10, 14, 15, 18, 2, 9, 10, 11, 17, 20, 5, 6, 8, 11, 14, 19, 1, 4, 5, 6, 9, 18, 2, 4, 7, 10, 11, 15, 2, 10, 11, 14, 17, 18, 5, 7, 8, 13, 15, 20, 2, 3, 6, 17, 18, 19, 10, 12, 13, 16, 19, 20, 12, 13, 13, 14, 17, 19, 1, 2, 3, 6, 15, 17, 4, 7, 9, 10, 17, 19, 1, 4, 12, 15, 16, 17, 1, 2, 7, 8, 9, 20, 4, 6, 8, 9, 14, 16, 1, 3, 7, 9, 13, 18, 1, 14, 15, 16, 17, 18, 1, 3, 5, 6, 12, 16, 2, 5, 6, 7, 9, 10, 2, 3, 5, 7, 11, 14, 1, 9, 11, 14, 15, 16, 5, 9, 13, 14, 15, 20, 7, 8, 9, 17, 18, 19, 8, 11, 14, 15, 17, 20, 3, 9, 13, 14, 15, 20, 1, 2, 3, 4, 11, 18, 5, 6, 7, 11, 15, 19, 3, 10, 12, 13, 15, 20, 2, 7, 8, 9, 10, 17, 1, 2, 12, 13, 14, 15, 5, 6, 10, 11, 13, 16, 2, 3, 4, 6, 14, 20, 6, 7, 13, 15, 16, 19, 2, 7, 8, 11, 13, 16, 7, 8, 9, 12, 15, 20, 4, 5, 6, 15, 18, 20, 7, 8, 9, 10, 11, 19, 7, 8, 11, 12, 13, 17, 2, 5, 7, 8, 14, 19, 3, 5, 6, 7, 8, 9, 1, 4, 5, 7, 11, 18, 1, 2, 6, 7, 8, 9];
rreq = [|11, 9, 9, 5, 5, 2, 14, 13, 13, 12, 12, 11, 18, 15, 15, 13, 13, 12, 19, 16, 14, 12, 11, 7, 18, 16, 15, 14, 14, 13, 20, 17, 17, 16, 14, 13, 13, 12, 12, 11, 9, 9, 18, 17, 17, 17, 17, 17, 2, 1, 1, 1, 1, 1, 8, 7, 6, 5, 5, 3, 17, 16, 12, 11, 8, 7, 16, 15, 14, 12, 12, 11, 2, 1, 1, 1, 1, 1, 16, 11, 10, 6, 6, 4, 10, 10, 10, 10, 10, 10, 5, 4, 4, 4, 2, 2, 8, 7, 6, 4, 3, 2, 12, 12, 12, 12, 11, 11, 19, 15, 15, 11, 7, 6, 6, 5, 5, 5, 5, 5, 10, 10, 9, 7, 6, 4, 19, 19, 19, 18, 18, 17, 12, 11, 10, 9, 9, 8, 17, 17, 17, 16, 16, 15, 19, 19, 19, 19, 18, 18, 12, 12, 10, 9, 8, 8, 10, 9, 9, 9, 9, 9, 14, 14, 14, 13, 13, 13, 9, 9, 8, 8, 7, 6, 15, 13, 12, 12, 11, 10, 18, 16, 12, 11, 9, 7, 20, 16, 16, 13, 12, 9, 10, 9, 8, 6, 5, 3, 15, 14, 12, 8, 8, 5, 18, 18, 16, 15, 11, 11, 13, 10, 10, 9, 7, 4, 4, 4, 4, 3, 3, 2, 4, 3, 3, 2, 2, 2, 10, 9, 8, 6, 4, 3, 13, 13, 11, 11, 9, 7, 12, 12, 12, 12, 12, 12, 6, 5, 5, 4, 3, 2, 8, 6, 5, 5, 4, 3, 20, 18, 17, 15, 15, 14, 7, 6, 6, 6, 5, 4, 3, 2, 2, 2, 2, 2, 9, 7, 7, 6, 5, 5, 19, 17, 17, 15, 15, 14, 15, 13, 13, 10, 9, 5, 16, 13, 13, 10, 6, 4
 |16, 15, 15, 14, 12, 12, 15, 15, 15, 14, 14, 14, 18, 17, 17, 16, 15, 15, 12, 11, 11, 11, 10, 10, 20, 20, 20, 20, 20, 20, 11, 10, 9, 8, 7, 6, 17, 16, 15, 14, 14, 13, 4, 4, 4, 4, 4, 4, 20, 16, 15, 14, 10, 10, 12, 11, 11, 11, 10, 9, 9, 8, 7, 5, 3, 2, 17, 16, 15, 15, 15, 14, 12, 11, 10, 8, 7, 7, 15, 15, 15, 14, 14, 13, 19, 14, 12, 10, 8, 6, 5, 5, 5, 5, 5, 5, 11, 10, 9, 8, 7, 6, 7, 7, 6, 6, 6, 5, 17, 16, 15, 14, 13, 11, 18, 18, 18, 17, 16, 16, 18, 16, 14, 12, 11, 9, 20, 14, 13, 10, 8, 4, 8, 8, 8, 8, 7, 7, 8, 7, 7, 7, 7, 7, 17, 17, 17, 17, 16, 16, 13, 11, 10, 8, 8, 7, 14, 11, 11, 8, 7, 6, 13, 12, 12, 11, 11, 11, 10, 9, 9, 8, 6, 4, 19, 18, 16, 16, 15, 14, 17, 15, 14, 14, 13, 12, 8, 6, 6, 4, 4, 3, 6, 5, 5, 4, 3, 3, 13, 13, 11, 8, 5, 3, 13, 10, 10, 9, 7, 6, 19, 16, 15, 14, 13, 11, 18, 17, 15, 12, 11, 9, 14, 13, 12, 11, 9, 9, 16, 15, 14, 14, 12, 12, 20, 19, 18, 18, 17, 17, 16, 16, 16, 16, 16, 16, 12, 10, 10, 9, 8, 6, 6, 4, 4, 4, 3, 2, 11, 10, 10, 8, 7, 5, 3, 2, 2, 1, 1, 1, 20, 17, 11, 9, 5, 5, 12, 10, 9, 7, 5, 4, 5, 4, 3, 3, 2, 1, 17, 16, 16, 16, 14, 14, 10, 10, 10, 10, 10, 10
 |17, 15, 12, 7, 5, 3, 20, 17, 15, 10, 10, 5, 13, 11, 11, 6, 6, 3, 13, 12, 12, 12, 11, 11, 13, 12, 8, 8, 5, 3, 20, 19, 19, 18, 18, 17, 14, 10, 10, 5, 3, 2, 11, 11, 10, 10, 9, 8, 14, 13, 13, 10, 10, 8, 13, 11, 9, 9, 8, 7, 14, 13, 12, 12, 12, 11, 12, 11, 10, 10, 10, 9, 1, 1, 1, 1, 1, 1, 20, 17, 16, 15, 14, 13, 17, 12, 10, 9, 7, 4, 12, 10, 10, 9, 8, 8, 15, 14, 13, 12, 12, 11, 12, 10, 9, 9, 8, 7, 8, 6, 6, 6, 5, 4, 3, 3, 3, 3, 3, 3, 9, 9, 9, 9, 8, 8, 16, 13, 11, 11, 10, 7, 14, 12, 10, 9, 7, 6, 4, 3, 3, 2, 2, 1, 15, 14, 14, 14, 14, 14, 17, 17, 15, 13, 12, 12, 19, 18, 18, 18, 18, 18, 9, 9, 9, 9, 9, 9, 16, 13, 11, 7, 5, 5, 15, 14, 12, 8, 7, 4, 10, 9, 9, 9, 9, 9, 17, 13, 13, 11, 10, 8, 14, 12, 10, 8, 6, 4, 12, 10, 10, 9, 9, 8, 19, 18, 18, 17, 17, 17, 10, 10, 7, 5, 4, 1, 8, 8, 6, 6, 5, 4, 18, 13, 11, 7, 3, 3, 10, 10, 10, 10, 10, 10, 17, 14, 12, 8, 7, 3, 16, 15, 14, 14, 14, 13, 17, 16, 16, 15, 14, 14, 3, 2, 2, 1, 1, 1, 17, 14, 13, 11, 8, 6, 15, 14, 14, 14, 14, 14, 13, 12, 10, 10, 8, 8, 6, 5, 4, 3, 2, 1, 15, 12, 10, 8, 5, 3, 10, 7, 5, 4, 4, 2, 17, 15, 14, 14, 12, 12
 |17, 15, 10, 9, 5, 5, 13, 12, 12, 11, 9, 9, 16, 14, 10, 6, 4, 2, 19, 18, 18, 18, 17, 17, 20, 20, 20, 20, 20, 20, 17, 14, 12, 8, 7, 3, 10, 9, 9, 9, 9, 9, 13, 13, 13, 12, 13, 13, 15, 13, 11, 10, 9, 6, 13, 10, 10, 9, 7, 5, 15, 13, 12, 11, 10, 9, 20, 18, 17, 16, 15, 14, 15, 13, 13, 9, 8, 5, 16, 16, 15, 14, 12, 12, 18, 18, 18, 18, 18, 18, 6, 4, 3, 2, 2, 1, 12, 11, 10, 9, 6, 5, 12, 12, 13, 12, 12, 12, 6, 6, 6, 6, 6, 6, 18, 18, 17, 18, 18, 17, 18, 15, 14, 14, 13, 11, 16, 13, 9, 8, 5, 3, 17, 16, 15, 15, 15, 14, 7, 6, 5, 5, 4, 5, 5, 4, 3, 2, 3, 2, 3, 3, 3, 3, 2, 2, 8, 8, 7, 6, 6, 5, 9, 8, 7, 8, 7, 6, 13, 13, 13, 13, 12, 12, 19, 15, 14, 12, 11, 9, 14, 14, 14, 13, 13, 12, 9, 8, 7, 7, 6, 6, 19, 14, 13, 10, 5, 2, 18, 16, 16, 12, 12, 10, 19, 18, 17, 15, 15, 13, 15, 15, 13, 13, 12, 11, 17, 14, 14, 11, 10, 8, 9, 9, 8, 8, 7, 6, 5, 3, 3, 3, 1, 1, 15, 14, 14, 14, 13, 13, 15, 13, 10, 9, 8, 6, 8, 9, 8, 8, 8, 8, 10, 9, 8, 8, 6, 6, 6, 5, 4, 4, 3, 1, 7, 7, 6, 6, 5, 5, 14, 11, 10, 8, 7, 6, 18, 16, 16, 15, 14, 14, 13, 11, 11, 10, 10, 9, 9, 6, 6, 5, 4, 3, 20, 18, 16, 15, 15, 13|];